# Solution for model continuous_k_medians
# Objective value = 20956
x[0,0] 1
x[0,1] 0
x[1,0] 1
x[1,1] 0
x[2,0] 1
x[2,1] 0
x[3,0] 1
x[3,1] 0
x[4,0] 1
x[4,1] 0
x[5,0] 1
x[5,1] 0
x[6,0] 0
x[6,1] 1
x[7,0] 0
x[7,1] 1
x[8,0] 1
x[8,1] 0
x[9,0] 0
x[9,1] 1
x[10,0] 1
x[10,1] 0
x[11,0] 1
x[11,1] 0
x[12,0] 1
x[12,1] 0
x[13,0] 1
x[13,1] 0
x[14,0] 1
x[14,1] 0
x[15,0] 1
x[15,1] 0
x[16,0] 1
x[16,1] 0
x[17,0] 1
x[17,1] 0
x[18,0] 1
x[18,1] 0
x[19,0] 1
x[19,1] 0
x[20,0] 1
x[20,1] 0
x[21,0] 1
x[21,1] 0
x[22,0] 0
x[22,1] 1
x[23,0] 0
x[23,1] 1
x[24,0] 1
x[24,1] 0
x[25,0] 0
x[25,1] 1
x[26,0] 0
x[26,1] 1
x[27,0] 0
x[27,1] 1
x[28,0] 0
x[28,1] 1
x[29,0] 0
x[29,1] 1
x[30,0] 0
x[30,1] 1
x[31,0] 0
x[31,1] 1
x[32,0] 0
x[32,1] 1
x[33,0] 0
x[33,1] 1
x[34,0] 1
x[34,1] 0
x[35,0] 0
x[35,1] 1
x[36,0] 0
x[36,1] 1
x[37,0] 0
x[37,1] 1
x[38,0] 1
x[38,1] 0
x[39,0] 0
x[39,1] 1
x[40,0] 0
x[40,1] 1
x[41,0] 1
x[41,1] 0
x[42,0] 1
x[42,1] 0
x[43,0] 0
x[43,1] 1
x[44,0] 0
x[44,1] 1
x[45,0] 0
x[45,1] 1
x[46,0] 1
x[46,1] 0
x[47,0] 1
x[47,1] 0
x[48,0] 1
x[48,1] 0
x[49,0] 1
x[49,1] 0
x[50,0] 1
x[50,1] 0
x[51,0] 1
x[51,1] 0
x[52,0] 1
x[52,1] 0
x[53,0] 1
x[53,1] 0
x[54,0] 1
x[54,1] 0
x[55,0] 1
x[55,1] 0
x[56,0] 1
x[56,1] 0
x[57,0] 1
x[57,1] 0
x[58,0] 1
x[58,1] 0
x[59,0] 1
x[59,1] 0
x[60,0] 0
x[60,1] 1
x[61,0] 0
x[61,1] 1
x[62,0] 0
x[62,1] 1
x[63,0] 0
x[63,1] 1
x[64,0] 1
x[64,1] 0
x[65,0] 0
x[65,1] 1
x[66,0] 1
x[66,1] 0
x[67,0] 1
x[67,1] 0
x[68,0] 1
x[68,1] 0
x[69,0] 1
x[69,1] 0
x[70,0] 1
x[70,1] 0
x[71,0] 1
x[71,1] 0
x[72,0] 1
x[72,1] 0
x[73,0] 1
x[73,1] 0
x[74,0] 1
x[74,1] 0
x[75,0] 1
x[75,1] 0
x[76,0] 1
x[76,1] 0
x[77,0] 1
x[77,1] 0
x[78,0] 1
x[78,1] 0
x[79,0] 1
x[79,1] 0
x[80,0] 1
x[80,1] 0
x[81,0] 1
x[81,1] 0
x[82,0] 1
x[82,1] 0
x[83,0] 1
x[83,1] 0
x[84,0] 1
x[84,1] 0
x[85,0] 0
x[85,1] 1
x[86,0] 0
x[86,1] 1
x[87,0] 0
x[87,1] 1
x[88,0] 1
x[88,1] 0
x[89,0] 0
x[89,1] 1
x[90,0] 0
x[90,1] 1
x[91,0] 0
x[91,1] 1
x[92,0] 0
x[92,1] 1
x[93,0] 0
x[93,1] 1
x[94,0] 0
x[94,1] 1
x[95,0] 0
x[95,1] 1
x[96,0] 1
x[96,1] 0
x[97,0] 1
x[97,1] 0
x[98,0] 0
x[98,1] 1
x[99,0] 0
x[99,1] 1
x[100,0] 1
x[100,1] 0
x[101,0] 1
x[101,1] 0
x[102,0] 1
x[102,1] 0
x[103,0] 0
x[103,1] 1
x[104,0] 0
x[104,1] 1
x[105,0] 0
x[105,1] 1
x[106,0] 0
x[106,1] 1
x[107,0] 0
x[107,1] 1
x[108,0] 1
x[108,1] 0
x[109,0] 1
x[109,1] 0
x[110,0] 1
x[110,1] 0
x[111,0] 1
x[111,1] 0
x[112,0] 1
x[112,1] 0
x[113,0] 1
x[113,1] 0
x[114,0] 1
x[114,1] 0
x[115,0] 1
x[115,1] 0
x[116,0] 1
x[116,1] 0
x[117,0] 1
x[117,1] 0
x[118,0] 1
x[118,1] 0
x[119,0] 1
x[119,1] 0
x[120,0] 1
x[120,1] 0
x[121,0] 1
x[121,1] 0
x[122,0] 1
x[122,1] 0
x[123,0] 1
x[123,1] 0
x[124,0] 1
x[124,1] 0
x[125,0] 1
x[125,1] 0
x[126,0] 1
x[126,1] 0
x[127,0] 1
x[127,1] 0
x[128,0] 1
x[128,1] 0
x[129,0] 1
x[129,1] 0
x[130,0] 1
x[130,1] 0
x[131,0] 1
x[131,1] 0
x[132,0] 1
x[132,1] 0
x[133,0] 1
x[133,1] 0
x[134,0] 1
x[134,1] 0
x[135,0] 1
x[135,1] 0
x[136,0] 1
x[136,1] 0
x[137,0] 1
x[137,1] 0
x[138,0] 0
x[138,1] 1
x[139,0] 0
x[139,1] 1
x[140,0] 0
x[140,1] 1
x[141,0] 0
x[141,1] 1
x[142,0] 0
x[142,1] 1
x[143,0] 0
x[143,1] 1
x[144,0] 0
x[144,1] 1
x[145,0] 0
x[145,1] 1
x[146,0] 0
x[146,1] 1
x[147,0] 1
x[147,1] 0
x[148,0] 1
x[148,1] 0
x[149,0] 1
x[149,1] 0
x[150,0] 0
x[150,1] 1
x[151,0] 0
x[151,1] 1
x[152,0] 0
x[152,1] 1
x[153,0] 1
x[153,1] 0
x[154,0] 1
x[154,1] 0
x[155,0] 1
x[155,1] 0
x[156,0] 1
x[156,1] 0
x[157,0] 1
x[157,1] 0
x[158,0] 1
x[158,1] 0
x[159,0] 1
x[159,1] 0
x[160,0] 1
x[160,1] 0
x[161,0] 1
x[161,1] 0
x[162,0] 1
x[162,1] 0
x[163,0] 1
x[163,1] 0
x[164,0] 0
x[164,1] 1
x[165,0] 1
x[165,1] 0
x[166,0] 0
x[166,1] 1
x[167,0] 1
x[167,1] 0
x[168,0] 1
x[168,1] 0
x[169,0] 1
x[169,1] 0
x[170,0] 1
x[170,1] 0
x[171,0] 1
x[171,1] 0
x[172,0] 1
x[172,1] 0
x[173,0] 1
x[173,1] 0
x[174,0] 1
x[174,1] 0
x[175,0] 1
x[175,1] 0
x[176,0] 1
x[176,1] 0
x[177,0] 1
x[177,1] 0
x[178,0] 1
x[178,1] 0
x[179,0] 1
x[179,1] 0
x[180,0] 1
x[180,1] 0
x[181,0] 1
x[181,1] 0
x[182,0] 1
x[182,1] 0
x[183,0] 1
x[183,1] 0
x[184,0] 1
x[184,1] 0
x[185,0] 1
x[185,1] 0
x[186,0] 1
x[186,1] 0
x[187,0] 1
x[187,1] 0
x[188,0] 1
x[188,1] 0
x[189,0] 1
x[189,1] 0
x[190,0] 1
x[190,1] 0
x[191,0] 1
x[191,1] 0
x[192,0] 1
x[192,1] 0
x[193,0] 1
x[193,1] 0
x[194,0] 1
x[194,1] 0
x[195,0] 1
x[195,1] 0
x[196,0] 1
x[196,1] 0
x[197,0] 1
x[197,1] 0
x[198,0] 1
x[198,1] 0
x[199,0] 1
x[199,1] 0
x[200,0] 1
x[200,1] 0
x[201,0] 1
x[201,1] 0
x[202,0] 1
x[202,1] 0
x[203,0] 1
x[203,1] 0
x[204,0] 1
x[204,1] 0
x[205,0] 1
x[205,1] 0
x[206,0] 1
x[206,1] 0
x[207,0] 1
x[207,1] 0
x[208,0] 1
x[208,1] 0
x[209,0] 1
x[209,1] 0
x[210,0] 1
x[210,1] 0
x[211,0] 1
x[211,1] 0
x[212,0] 1
x[212,1] 0
x[213,0] 1
x[213,1] 0
x[214,0] 1
x[214,1] 0
x[215,0] 1
x[215,1] 0
x[216,0] 1
x[216,1] 0
x[217,0] 1
x[217,1] 0
x[218,0] 1
x[218,1] 0
x[219,0] 1
x[219,1] 0
x[220,0] 1
x[220,1] 0
x[221,0] 1
x[221,1] 0
x[222,0] 1
x[222,1] 0
x[223,0] 1
x[223,1] 0
x[224,0] 1
x[224,1] 0
x[225,0] 1
x[225,1] 0
x[226,0] 1
x[226,1] 0
x[227,0] 1
x[227,1] 0
x[228,0] 1
x[228,1] 0
x[229,0] 1
x[229,1] 0
x[230,0] 1
x[230,1] 0
x[231,0] 1
x[231,1] 0
x[232,0] 1
x[232,1] 0
x[233,0] 1
x[233,1] 0
x[234,0] 1
x[234,1] 0
x[235,0] 1
x[235,1] 0
x[236,0] 1
x[236,1] 0
x[237,0] 1
x[237,1] 0
x[238,0] 1
x[238,1] 0
x[239,0] 1
x[239,1] 0
x[240,0] 1
x[240,1] 0
x[241,0] 1
x[241,1] 0
x[242,0] 0
x[242,1] 1
x[243,0] 0
x[243,1] 1
x[244,0] 0
x[244,1] 1
x[245,0] 0
x[245,1] 1
x[246,0] 0
x[246,1] 1
x[247,0] 0
x[247,1] 1
x[248,0] 0
x[248,1] 1
x[249,0] 0
x[249,1] 1
x[250,0] 0
x[250,1] 1
x[251,0] 0
x[251,1] 1
x[252,0] 0
x[252,1] 1
x[253,0] 0
x[253,1] 1
x[254,0] 1
x[254,1] 0
x[255,0] 0
x[255,1] 1
x[256,0] 0
x[256,1] 1
x[257,0] 0
x[257,1] 1
x[258,0] 1
x[258,1] 0
x[259,0] 1
x[259,1] 0
x[260,0] 1
x[260,1] 0
x[261,0] 0
x[261,1] 1
x[262,0] 1
x[262,1] 0
x[263,0] 0
x[263,1] 1
x[264,0] 0
x[264,1] 1
x[265,0] 0
x[265,1] 1
x[266,0] 0
x[266,1] 1
x[267,0] 0
x[267,1] 1
x[268,0] 0
x[268,1] 1
x[269,0] 0
x[269,1] 1
x[270,0] 0
x[270,1] 1
x[271,0] 0
x[271,1] 1
x[272,0] 0
x[272,1] 1
x[273,0] 0
x[273,1] 1
x[274,0] 1
x[274,1] 0
x[275,0] 1
x[275,1] 0
x[276,0] 1
x[276,1] 0
x[277,0] 1
x[277,1] 0
x[278,0] 0
x[278,1] 1
x[279,0] 0
x[279,1] 1
x[280,0] 0
x[280,1] 1
x[281,0] 0
x[281,1] 1
x[282,0] 0
x[282,1] 1
x[283,0] 0
x[283,1] 1
x[284,0] 0
x[284,1] 1
x[285,0] 0
x[285,1] 1
x[286,0] 0
x[286,1] 1
x[287,0] 0
x[287,1] 1
x[288,0] 0
x[288,1] 1
x[289,0] 0
x[289,1] 1
x[290,0] 0
x[290,1] 1
x[291,0] 0
x[291,1] 1
x[292,0] 0
x[292,1] 1
x[293,0] 0
x[293,1] 1
x[294,0] 0
x[294,1] 1
x[295,0] 0
x[295,1] 1
x[296,0] 0
x[296,1] 1
x[297,0] 0
x[297,1] 1
x[298,0] 0
x[298,1] 1
x[299,0] 0
x[299,1] 1
x[300,0] 0
x[300,1] 1
x[301,0] 0
x[301,1] 1
x[302,0] 0
x[302,1] 1
x[303,0] 0
x[303,1] 1
x[304,0] 0
x[304,1] 1
x[305,0] 0
x[305,1] 1
x[306,0] 0
x[306,1] 1
x[307,0] 0
x[307,1] 1
x[308,0] 0
x[308,1] 1
x[309,0] 0
x[309,1] 1
x[310,0] 0
x[310,1] 1
x[311,0] 0
x[311,1] 1
x[312,0] 0
x[312,1] 1
x[313,0] 0
x[313,1] 1
x[314,0] 0
x[314,1] 1
x[315,0] 0
x[315,1] 1
x[316,0] 0
x[316,1] 1
x[317,0] 0
x[317,1] 1
x[318,0] 0
x[318,1] 1
x[319,0] 0
x[319,1] 1
x[320,0] 0
x[320,1] 1
x[321,0] 0
x[321,1] 1
x[322,0] 0
x[322,1] 1
x[323,0] 0
x[323,1] 1
x[324,0] 0
x[324,1] 1
x[325,0] 0
x[325,1] 1
x[326,0] 0
x[326,1] 1
x[327,0] 0
x[327,1] 1
x[328,0] 0
x[328,1] 1
x[329,0] 0
x[329,1] 1
x[330,0] 0
x[330,1] 1
x[331,0] 0
x[331,1] 1
x[332,0] 0
x[332,1] 1
x[333,0] 0
x[333,1] 1
x[334,0] 0
x[334,1] 1
x[335,0] 0
x[335,1] 1
x[336,0] 0
x[336,1] 1
x[337,0] 0
x[337,1] 1
x[338,0] 0
x[338,1] 1
x[339,0] 0
x[339,1] 1
x[340,0] 0
x[340,1] 1
x[341,0] 0
x[341,1] 1
x[342,0] 0
x[342,1] 1
x[343,0] 0
x[343,1] 1
x[344,0] 1
x[344,1] 0
x[345,0] 0
x[345,1] 1
x[346,0] 0
x[346,1] 1
x[347,0] 0
x[347,1] 1
x[348,0] 0
x[348,1] 1
x[349,0] 0
x[349,1] 1
x[350,0] 1
x[350,1] 0
x[351,0] 1
x[351,1] 0
x[352,0] 0
x[352,1] 1
x[353,0] 0
x[353,1] 1
x[354,0] 0
x[354,1] 1
x[355,0] 0
x[355,1] 1
x[356,0] 1
x[356,1] 0
x[357,0] 1
x[357,1] 0
x[358,0] 1
x[358,1] 0
x[359,0] 1
x[359,1] 0
x[360,0] 0
x[360,1] 1
x[361,0] 1
x[361,1] 0
x[362,0] 0
x[362,1] 1
x[363,0] 0
x[363,1] 1
x[364,0] 0
x[364,1] 1
x[365,0] 0
x[365,1] 1
x[366,0] 0
x[366,1] 1
x[367,0] 0
x[367,1] 1
x[368,0] 0
x[368,1] 1
x[369,0] 0
x[369,1] 1
x[370,0] 0
x[370,1] 1
x[371,0] 0
x[371,1] 1
x[372,0] 0
x[372,1] 1
x[373,0] 0
x[373,1] 1
x[374,0] 0
x[374,1] 1
x[375,0] 0
x[375,1] 1
x[376,0] 0
x[376,1] 1
x[377,0] 0
x[377,1] 1
x[378,0] 0
x[378,1] 1
x[379,0] 0
x[379,1] 1
x[380,0] 0
x[380,1] 1
x[381,0] 0
x[381,1] 1
x[382,0] 0
x[382,1] 1
x[383,0] 0
x[383,1] 1
x[384,0] 0
x[384,1] 1
x[385,0] 0
x[385,1] 1
x[386,0] 0
x[386,1] 1
x[387,0] 0
x[387,1] 1
x[388,0] 0
x[388,1] 1
x[389,0] 0
x[389,1] 1
x[390,0] 1
x[390,1] 0
x[391,0] 0
x[391,1] 1
x[392,0] 0
x[392,1] 1
x[393,0] 0
x[393,1] 1
x[394,0] 0
x[394,1] 1
x[395,0] 0
x[395,1] 1
x[396,0] 0
x[396,1] 1
x[397,0] 0
x[397,1] 1
x[398,0] 0
x[398,1] 1
x[399,0] 0
x[399,1] 1
x[400,0] 0
x[400,1] 1
x[401,0] 0
x[401,1] 1
x[402,0] 0
x[402,1] 1
x[403,0] 0
x[403,1] 1
x[404,0] 0
x[404,1] 1
x[405,0] 0
x[405,1] 1
x[406,0] 0
x[406,1] 1
x[407,0] 0
x[407,1] 1
x[408,0] 0
x[408,1] 1
x[409,0] 0
x[409,1] 1
x[410,0] 1
x[410,1] 0
x[411,0] 1
x[411,1] 0
x[412,0] 0
x[412,1] 1
x[413,0] 0
x[413,1] 1
x[414,0] 0
x[414,1] 1
x[415,0] 0
x[415,1] 1
x[416,0] 0
x[416,1] 1
x[417,0] 1
x[417,1] 0
x[418,0] 0
x[418,1] 1
x[419,0] 0
x[419,1] 1
x[420,0] 0
x[420,1] 1
x[421,0] 0
x[421,1] 1
x[422,0] 0
x[422,1] 1
x[423,0] 0
x[423,1] 1
x[424,0] 0
x[424,1] 1
x[425,0] 1
x[425,1] 0
x[426,0] 0
x[426,1] 1
x[427,0] 0
x[427,1] 1
x[428,0] 0
x[428,1] 1
x[429,0] 1
x[429,1] 0
x[430,0] 0
x[430,1] 1
x[431,0] 0
x[431,1] 1
x[432,0] 0
x[432,1] 1
x[433,0] 0
x[433,1] 1
x[434,0] 0
x[434,1] 1
x[435,0] 0
x[435,1] 1
x[436,0] 1
x[436,1] 0
x[437,0] 1
x[437,1] 0
x[438,0] 1
x[438,1] 0
x[439,0] 0
x[439,1] 1
x[440,0] 0
x[440,1] 1
x[441,0] 0
x[441,1] 1
x[442,0] 0
x[442,1] 1
x[443,0] 1
x[443,1] 0
x[444,0] 0
x[444,1] 1
x[445,0] 0
x[445,1] 1
x[446,0] 0
x[446,1] 1
x[447,0] 0
x[447,1] 1
x[448,0] 0
x[448,1] 1
x[449,0] 0
x[449,1] 1
x[450,0] 0
x[450,1] 1
x[451,0] 0
x[451,1] 1
x[452,0] 0
x[452,1] 1
x[453,0] 0
x[453,1] 1
x[454,0] 0
x[454,1] 1
x[455,0] 0
x[455,1] 1
x[456,0] 0
x[456,1] 1
x[457,0] 0
x[457,1] 1
x[458,0] 0
x[458,1] 1
x[459,0] 0
x[459,1] 1
x[460,0] 0
x[460,1] 1
x[461,0] 0
x[461,1] 1
x[462,0] 0
x[462,1] 1
x[463,0] 0
x[463,1] 1
x[464,0] 0
x[464,1] 1
x[465,0] 0
x[465,1] 1
x[466,0] 0
x[466,1] 1
x[467,0] 0
x[467,1] 1
x[468,0] 0
x[468,1] 1
x[469,0] 0
x[469,1] 1
x[470,0] 0
x[470,1] 1
x[471,0] 0
x[471,1] 1
x[472,0] 0
x[472,1] 1
x[473,0] 0
x[473,1] 1
x[474,0] 0
x[474,1] 1
x[475,0] 0
x[475,1] 1
x[476,0] 0
x[476,1] 1
x[477,0] 0
x[477,1] 1
x[478,0] 0
x[478,1] 1
x[479,0] 0
x[479,1] 1
x[480,0] 0
x[480,1] 1
x[481,0] 1
x[481,1] 0
x[482,0] 0
x[482,1] 1
x[483,0] 0
x[483,1] 1
x[484,0] 0
x[484,1] 1
x[485,0] 0
x[485,1] 1
x[486,0] 0
x[486,1] 1
x[487,0] 0
x[487,1] 1
x[488,0] 0
x[488,1] 1
x[489,0] 0
x[489,1] 1
x[490,0] 0
x[490,1] 1
x[491,0] 0
x[491,1] 1
x[492,0] 0
x[492,1] 1
x[493,0] 0
x[493,1] 1
x[494,0] 0
x[494,1] 1
x[495,0] 0
x[495,1] 1
x[496,0] 0
x[496,1] 1
x[497,0] 0
x[497,1] 1
x[498,0] 0
x[498,1] 1
x[499,0] 0
x[499,1] 1
x[500,0] 0
x[500,1] 1
x[501,0] 0
x[501,1] 1
x[502,0] 0
x[502,1] 1
x[503,0] 1
x[503,1] 0
x[504,0] 1
x[504,1] 0
x[505,0] 0
x[505,1] 1
x[506,0] 0
x[506,1] 1
x[507,0] 1
x[507,1] 0
x[508,0] 1
x[508,1] 0
x[509,0] 1
x[509,1] 0
x[510,0] 1
x[510,1] 0
x[511,0] 1
x[511,1] 0
x[512,0] 0
x[512,1] 1
x[513,0] 0
x[513,1] 1
x[514,0] 0
x[514,1] 1
x[515,0] 1
x[515,1] 0
x[516,0] 1
x[516,1] 0
x[517,0] 1
x[517,1] 0
x[518,0] 1
x[518,1] 0
x[519,0] 1
x[519,1] 0
x[520,0] 1
x[520,1] 0
x[521,0] 1
x[521,1] 0
x[522,0] 1
x[522,1] 0
x[523,0] 1
x[523,1] 0
x[524,0] 1
x[524,1] 0
x[525,0] 1
x[525,1] 0
x[526,0] 1
x[526,1] 0
x[527,0] 1
x[527,1] 0
x[528,0] 1
x[528,1] 0
x[529,0] 1
x[529,1] 0
x[530,0] 1
x[530,1] 0
x[531,0] 1
x[531,1] 0
x[532,0] 1
x[532,1] 0
x[533,0] 1
x[533,1] 0
x[534,0] 1
x[534,1] 0
x[535,0] 1
x[535,1] 0
x[536,0] 1
x[536,1] 0
x[537,0] 1
x[537,1] 0
x[538,0] 1
x[538,1] 0
x[539,0] 1
x[539,1] 0
x[540,0] 1
x[540,1] 0
x[541,0] 1
x[541,1] 0
x[542,0] 1
x[542,1] 0
x[543,0] 1
x[543,1] 0
x[544,0] 1
x[544,1] 0
x[545,0] 1
x[545,1] 0
x[546,0] 1
x[546,1] 0
x[547,0] 1
x[547,1] 0
x[548,0] 1
x[548,1] 0
x[549,0] 1
x[549,1] 0
x[550,0] 1
x[550,1] 0
x[551,0] 1
x[551,1] 0
x[552,0] 1
x[552,1] 0
x[553,0] 1
x[553,1] 0
x[554,0] 1
x[554,1] 0
x[555,0] 1
x[555,1] 0
x[556,0] 1
x[556,1] 0
x[557,0] 1
x[557,1] 0
x[558,0] 1
x[558,1] 0
x[559,0] 1
x[559,1] 0
x[560,0] 1
x[560,1] 0
x[561,0] 1
x[561,1] 0
x[562,0] 1
x[562,1] 0
x[563,0] 1
x[563,1] 0
x[564,0] 1
x[564,1] 0
x[565,0] 1
x[565,1] 0
x[566,0] 1
x[566,1] 0
x[567,0] 1
x[567,1] 0
x[568,0] 1
x[568,1] 0
x[569,0] 1
x[569,1] 0
x[570,0] 1
x[570,1] 0
x[571,0] 1
x[571,1] 0
x[572,0] 1
x[572,1] 0
x[573,0] 1
x[573,1] 0
x[574,0] 1
x[574,1] 0
x[575,0] 0
x[575,1] 1
x[576,0] 1
x[576,1] 0
x[577,0] 1
x[577,1] 0
x[578,0] 1
x[578,1] 0
x[579,0] 1
x[579,1] 0
x[580,0] 1
x[580,1] 0
x[581,0] 0
x[581,1] 1
x[582,0] 0
x[582,1] 1
x[583,0] 1
x[583,1] 0
x[584,0] 1
x[584,1] 0
x[585,0] 1
x[585,1] 0
x[586,0] 0
x[586,1] 1
x[587,0] 1
x[587,1] 0
x[588,0] 1
x[588,1] 0
x[589,0] 1
x[589,1] 0
x[590,0] 1
x[590,1] 0
x[591,0] 1
x[591,1] 0
x[592,0] 1
x[592,1] 0
x[593,0] 1
x[593,1] 0
z[0,0,-1] 0
z[0,0,0] 1
z[0,0,1] 0
z[0,1,-1] 0
z[0,1,0] 1
z[0,1,1] 0
z[1,0,-1] 1
z[1,0,0] 0
z[1,0,1] 0
z[1,1,-1] 0
z[1,1,0] 1
z[1,1,1] 0
z[2,0,-1] 0
z[2,0,0] 1
z[2,0,1] 0
z[2,1,-1] 1
z[2,1,0] 0
z[2,1,1] 0
z[3,0,-1] 0
z[3,0,0] 1
z[3,0,1] 0
z[3,1,-1] 1
z[3,1,0] 0
z[3,1,1] 0
z[4,0,-1] 0
z[4,0,0] 1
z[4,0,1] 0
z[4,1,-1] 1
z[4,1,0] 0
z[4,1,1] 0
z[5,0,-1] 1
z[5,0,0] 0
z[5,0,1] 0
z[5,1,-1] 0
z[5,1,0] 1
z[5,1,1] 0
z[6,0,-1] 1
z[6,0,0] 0
z[6,0,1] 0
z[6,1,-1] 0
z[6,1,0] 1
z[6,1,1] 0
z[7,0,-1] 0
z[7,0,0] 1
z[7,0,1] 0
z[7,1,-1] 1
z[7,1,0] 0
z[7,1,1] 0
z[8,0,-1] 0
z[8,0,0] 1
z[8,0,1] 0
z[8,1,-1] 1
z[8,1,0] 0
z[8,1,1] 0
z[9,0,-1] 0
z[9,0,0] 1
z[9,0,1] 0
z[9,1,-1] 1
z[9,1,0] 0
z[9,1,1] 0
z[10,0,-1] 1
z[10,0,0] 0
z[10,0,1] 0
z[10,1,-1] 0
z[10,1,0] 1
z[10,1,1] 0
z[11,0,-1] 0
z[11,0,0] 0
z[11,0,1] 1
z[11,1,-1] 1
z[11,1,0] 0
z[11,1,1] 0
z[12,0,-1] 0
z[12,0,0] 0
z[12,0,1] 1
z[12,1,-1] 1
z[12,1,0] 0
z[12,1,1] 0
z[13,0,-1] 0
z[13,0,0] 0
z[13,0,1] 1
z[13,1,-1] 1
z[13,1,0] 0
z[13,1,1] 0
z[14,0,-1] 0
z[14,0,0] 0
z[14,0,1] 1
z[14,1,-1] 0
z[14,1,0] 1
z[14,1,1] 0
z[15,0,-1] 0
z[15,0,0] 1
z[15,0,1] 0
z[15,1,-1] 0
z[15,1,0] 0
z[15,1,1] 1
z[16,0,-1] 0
z[16,0,0] 1
z[16,0,1] 0
z[16,1,-1] 0
z[16,1,0] 0
z[16,1,1] 1
z[17,0,-1] 1
z[17,0,0] 0
z[17,0,1] 0
z[17,1,-1] 0
z[17,1,0] 0
z[17,1,1] 1
z[18,0,-1] 0
z[18,0,0] 1
z[18,0,1] 0
z[18,1,-1] 0
z[18,1,0] 0
z[18,1,1] 1
z[19,0,-1] 1
z[19,0,0] 0
z[19,0,1] 0
z[19,1,-1] 0
z[19,1,0] 0
z[19,1,1] 1
z[20,0,-1] 1
z[20,0,0] 0
z[20,0,1] 0
z[20,1,-1] 0
z[20,1,0] 0
z[20,1,1] 1
W[0,0,-1] 369
W[0,0,0] 1109
W[0,0,1] 386
W[0,1,-1] 148
W[0,1,0] 921
W[0,1,1] 271
W[1,0,-1] 1536
W[1,0,0] 141
W[1,0,1] 187
W[1,1,-1] 209
W[1,1,0] 898
W[1,1,1] 233
W[2,0,-1] 288
W[2,0,0] 1124
W[2,0,1] 452
W[2,1,-1] 1139
W[2,1,0] 121
W[2,1,1] 80
W[3,0,-1] 202
W[3,0,0] 1199
W[3,0,1] 463
W[3,1,-1] 1150
W[3,1,0] 107
W[3,1,1] 83
W[4,0,-1] 206
W[4,0,0] 1205
W[4,0,1] 453
W[4,1,-1] 1140
W[4,1,0] 114
W[4,1,1] 86
W[5,0,-1] 1371
W[5,0,0] 283
W[5,0,1] 210
W[5,1,-1] 164
W[5,1,0] 929
W[5,1,1] 247
W[6,0,-1] 1528
W[6,0,0] 98
W[6,0,1] 238
W[6,1,-1] 231
W[6,1,0] 958
W[6,1,1] 151
W[7,0,-1] 305
W[7,0,0] 1161
W[7,0,1] 398
W[7,1,-1] 1145
W[7,1,0] 115
W[7,1,1] 80
W[8,0,-1] 214
W[8,0,0] 1246
W[8,0,1] 404
W[8,1,-1] 1162
W[8,1,0] 109
W[8,1,1] 69
W[9,0,-1] 229
W[9,0,0] 1232
W[9,0,1] 403
W[9,1,-1] 1153
W[9,1,0] 119
W[9,1,1] 68
W[10,0,-1] 1370
W[10,0,0] 236
W[10,0,1] 258
W[10,1,-1] 205
W[10,1,0] 982
W[10,1,1] 153
W[11,0,-1] 59
W[11,0,0] 239
W[11,0,1] 1566
W[11,1,-1] 1142
W[11,1,0] 154
W[11,1,1] 44
W[12,0,-1] 35
W[12,0,0] 238
W[12,0,1] 1591
W[12,1,-1] 1143
W[12,1,0] 128
W[12,1,1] 69
W[13,0,-1] 65
W[13,0,0] 226
W[13,0,1] 1573
W[13,1,-1] 1146
W[13,1,0] 116
W[13,1,1] 78
W[14,0,-1] 539
W[14,0,0] 156
W[14,0,1] 1169
W[14,1,-1] 126
W[14,1,0] 1009
W[14,1,1] 205
W[15,0,-1] 152
W[15,0,0] 1402
W[15,0,1] 310
W[15,1,-1] 491
W[15,1,0] 44
W[15,1,1] 805
W[16,0,-1] 169
W[16,0,0] 1379
W[16,0,1] 316
W[16,1,-1] 538
W[16,1,0] 21
W[16,1,1] 781
W[17,0,-1] 1399
W[17,0,0] 343
W[17,0,1] 122
W[17,1,-1] 28
W[17,1,0] 148
W[17,1,1] 1164
W[18,0,-1] 157
W[18,0,0] 1499
W[18,0,1] 208
W[18,1,-1] 478
W[18,1,0] 55
W[18,1,1] 807
W[19,0,-1] 1418
W[19,0,0] 386
W[19,0,1] 60
W[19,1,-1] 29
W[19,1,0] 123
W[19,1,1] 1188
W[20,0,-1] 1410
W[20,0,0] 377
W[20,0,1] 77
W[20,1,-1] 27
W[20,1,0] 136
W[20,1,1] 1177
C[0,0] 755
C[0,1] 419
C[1,0] 515
C[1,1] 442
C[2,0] 740
C[2,1] 281
C[3,0] 665
C[3,1] 273
C[4,0] 659
C[4,1] 286
C[5,0] 703
C[5,1] 411
C[6,0] 574
C[6,1] 382
C[7,0] 703
C[7,1] 275
C[8,0] 618
C[8,1] 247
C[9,0] 632
C[9,1] 255
C[10,0] 752
C[10,1] 358
C[11,0] 357
C[11,1] 242
C[12,0] 308
C[12,1] 266
C[13,0] 356
C[13,1] 272
C[14,0] 1234
C[14,1] 331
C[15,0] 462
C[15,1] 1026
C[16,0] 485
C[16,1] 1097
C[17,0] 587
C[17,1] 204
C[18,0] 365
C[18,1] 1011
C[19,0] 506
C[19,1] 181
C[20,0] 531
C[20,1] 190
